74
8
32
33
60
0
44
43
59
65
11
95
96
62
77
40
10
15
68
67
27
97
89
1
18
13
52
50
54
82
26
19
57
48
83
81
45
28
85
17
98
61
51
2
42
79
6
72
58
69
91
84
56
88
23
7
75
80
78
90
73
94
14
36
29
49
9
53
31
38
4
93
41
71
47
64
92
25
86
20
55
16
66
63
22
30
70
5
12
34
76
3
99
46
35
37
24
87
21
39
